
Gurobi 8.1.1 (win64, Python) logging started 12/23/19 02:15:52

Academic license - for non-commercial use only

Gurobi 8.1.1 (win64, Python) logging started 12/23/19 02:20:56

Academic license - for non-commercial use only

Gurobi 8.1.1 (win64, Python) logging started 12/23/19 17:02:46

Academic license - for non-commercial use only

Gurobi 8.1.1 (win64, Python) logging started 12/23/19 19:54:27

Academic license - for non-commercial use only

Gurobi 8.1.1 (win64, Python) logging started 12/23/19 20:04:23

Academic license - for non-commercial use only

Gurobi 8.1.1 (win64, Python) logging started 12/24/19 12:58:16

Academic license - for non-commercial use only

Gurobi 8.1.1 (win64, Python) logging started 12/24/19 12:59:24

Academic license - for non-commercial use only

Gurobi 8.1.1 (win64, Python) logging started 12/24/19 13:05:44

Academic license - for non-commercial use only

Gurobi 8.1.1 (win64, Python) logging started 12/24/19 13:16:56

Academic license - for non-commercial use only

Gurobi 8.1.1 (win64, Python) logging started 12/24/19 13:17:40

Academic license - for non-commercial use only

Gurobi 8.1.1 (win64, Python) logging started 12/24/19 13:18:38

Academic license - for non-commercial use only

Gurobi 8.1.1 (win64, Python) logging started 12/24/19 13:19:34

Academic license - for non-commercial use only

Gurobi 8.1.1 (win64, Python) logging started 12/24/19 13:40:26

Academic license - for non-commercial use only

Gurobi 8.1.1 (win64, Python) logging started 12/24/19 13:41:14

Academic license - for non-commercial use only

Gurobi 8.1.1 (win64, Python) logging started 12/24/19 14:23:01

Academic license - for non-commercial use only

Gurobi 8.1.1 (win64, Python) logging started 12/24/19 14:47:03

Academic license - for non-commercial use only

Gurobi 8.1.1 (win64, Python) logging started 12/24/19 14:56:26

Academic license - for non-commercial use only

Gurobi 8.1.1 (win64, Python) logging started 12/24/19 14:58:29

Academic license - for non-commercial use only

Gurobi 8.1.1 (win64, Python) logging started 12/24/19 14:58:50

Academic license - for non-commercial use only

Gurobi 8.1.1 (win64, Python) logging started 12/24/19 15:00:02

Academic license - for non-commercial use only

Gurobi 8.1.1 (win64, Python) logging started 12/24/19 15:00:40

Academic license - for non-commercial use only

Gurobi 8.1.1 (win64, Python) logging started 12/24/19 15:01:17

Academic license - for non-commercial use only

Gurobi 8.1.1 (win64, Python) logging started 12/24/19 15:02:51

Academic license - for non-commercial use only

Gurobi 8.1.1 (win64, Python) logging started 12/31/19 12:30:08

Academic license - for non-commercial use only

Gurobi 8.1.1 (win64, Python) logging started 12/31/19 12:31:00

Academic license - for non-commercial use only
